N = 4;
Capacity = 4;
ItemsPerCustomer = [7, 4, 6, 6];
maxItemsPerCustomer = 7;
binCapacity = 50;
SizesOfItems = [|
  40, 39, 31, 30, 29, 24, 21
| 28, 23, 20, 17, 0, 0, 0
| 33, 24, 21, 15, 15, 14, 0
| 40, 28, 22, 19, 16, 11, 0
|];
Distance = [|
  0, 22, 34, 9, 38
| 22, 0, 56, 25, 60
| 34, 56, 0, 33, 15
| 9, 25, 33, 0, 41
| 38, 60, 15, 41, 0
|];
